; aiosonic :: corpus-study/repo_src/aiosonic/aiosonic/pools.py :: QUEUE 'CyclicQueuePool.pool' :: structured encoding (verdict: unsat)
; Generated by snf-pipeline (encoder.py) -- run with any
; SMT-LIB2-compliant solver, e.g. `z3 aiosonic__corpus-study_repo_src_aiosonic_aiosonic_pools.py__CyclicQueuePool.pool__structured.smt2`
; benchmark generated from python API
(set-info :status unknown)
(declare-fun order_0 () Int)
(assert
 (>= order_0 1))
(assert
 (<= order_0 1))
(assert
 (and true))
(assert
 false)
(check-sat)
